sat
(:max-memory                   18.11
 :memory                       18.01
 :nlsat-irrational-assignments 1
 :nlsat-propagations           7
 :nlsat-stages                 4
 :num-allocs                   6069
 :rlimit-count                 1469
 :time                         0.00
 :total-time                   0.01)
